p tw 128 21121 2 
1 66 
1 67 
1 69 
1 71 
1 74 
1 75 
1 78 
1 79 
1 81 
1 83 
1 85 
1 88 
1 89 
1 91 
1 93 
1 95 
1 97 
1 99 
1 101 
1 103 
1 105 
1 107 
1 110 
1 112 
1 113 
1 115 
1 117 
1 119 
1 121 
1 123 
1 126 
1 128 
2 65 
2 68 
2 70 
2 72 
2 73 
2 76 
2 77 
2 80 
2 82 
2 84 
2 86 
2 87 
2 90 
2 92 
2 94 
2 96 
2 98 
2 100 
2 102 
2 104 
2 106 
2 108 
2 109 
2 111 
2 114 
2 116 
2 118 
2 120 
2 122 
2 124 
2 125 
2 127 
3 4 
3 66 
3 68 
3 70 
3 72 
3 74 
3 75 
3 78 
3 79 
3 81 
3 84 
3 86 
3 88 
3 89 
3 91 
3 94 
3 95 
3 98 
3 100 
3 101 
3 104 
3 106 
3 108 
3 110 
3 112 
3 113 
3 116 
3 118 
3 120 
3 122 
3 124 
3 126 
3 128 
4 65 
4 67 
4 69 
4 71 
4 73 
4 76 
4 77 
4 80 
4 82 
4 83 
4 85 
4 87 
4 90 
4 92 
4 93 
4 96 
4 97 
4 99 
4 102 
4 103 
4 105 
4 107 
4 109 
4 111 
4 114 
4 115 
4 117 
4 119 
4 121 
4 123 
4 125 
4 127 
5 6 
5 66 
5 68 
5 69 
5 72 
5 73 
5 75 
5 78 
5 80 
5 81 
5 83 
5 86 
5 88 
5 90 
5 91 
5 94 
5 96 
5 97 
5 99 
5 102 
5 104 
5 106 
5 107 
5 109 
5 112 
5 113 
5 115 
5 117 
5 119 
5 122 
5 124 
5 125 
5 127 
6 65 
6 67 
6 70 
6 71 
6 74 
6 76 
6 77 
6 79 
6 82 
6 84 
6 85 
6 87 
6 89 
6 92 
6 93 
6 95 
6 98 
6 100 
6 101 
6 103 
6 105 
6 108 
6 110 
6 111 
6 114 
6 116 
6 118 
6 120 
6 121 
6 123 
6 126 
6 128 
7 8 
7 65 
7 68 
7 69 
7 71 
7 74 
7 75 
7 77 
7 79 
7 82 
7 84 
7 85 
7 87 
7 90 
7 91 
7 94 
7 96 
7 98 
7 99 
7 102 
7 103 
7 106 
7 107 
7 110 
7 112 
7 113 
7 115 
7 118 
7 120 
7 122 
7 123 
7 125 
7 128 
8 66 
8 67 
8 70 
8 72 
8 73 
8 76 
8 78 
8 80 
8 81 
8 83 
8 86 
8 88 
8 89 
8 92 
8 93 
8 95 
8 97 
8 100 
8 101 
8 104 
8 105 
8 108 
8 109 
8 111 
8 114 
8 116 
8 117 
8 119 
8 121 
8 124 
8 126 
8 127 
9 10 
9 65 
9 68 
9 69 
9 71 
9 74 
9 75 
9 78 
9 80 
9 82 
9 83 
9 86 
9 88 
9 89 
9 91 
9 93 
9 96 
9 97 
9 100 
9 101 
9 103 
9 106 
9 107 
9 110 
9 111 
9 114 
9 116 
9 118 
9 120 
9 121 
9 124 
9 125 
9 127 
10 66 
10 67 
10 70 
10 72 
10 73 
10 76 
10 77 
10 79 
10 81 
10 84 
10 85 
10 87 
10 90 
10 92 
10 94 
10 95 
10 98 
10 99 
10 102 
10 104 
10 105 
10 108 
10 109 
10 112 
10 113 
10 115 
10 117 
10 119 
10 122 
10 123 
10 126 
10 128 
11 12 
11 66 
11 68 
11 70 
11 71 
11 73 
11 75 
11 78 
11 80 
11 82 
11 84 
11 85 
11 87 
11 89 
11 92 
11 94 
11 96 
11 97 
11 100 
11 101 
11 104 
11 105 
11 107 
11 110 
11 111 
11 113 
11 115 
11 118 
11 119 
11 122 
11 123 
11 126 
11 127 
12 65 
12 67 
12 69 
12 72 
12 74 
12 76 
12 77 
12 79 
12 81 
12 83 
12 86 
12 88 
12 90 
12 91 
12 93 
12 95 
12 98 
12 99 
12 102 
12 103 
12 106 
12 108 
12 109 
12 112 
12 114 
12 116 
12 117 
12 120 
12 121 
12 124 
12 125 
12 128 
13 14 
13 66 
13 68 
13 70 
13 71 
13 74 
13 75 
13 77 
13 80 
13 82 
13 83 
13 86 
13 87 
13 89 
13 92 
13 93 
13 95 
13 97 
13 99 
13 102 
13 104 
13 106 
13 108 
13 109 
13 112 
13 113 
13 116 
13 118 
13 119 
13 121 
13 123 
13 125 
13 128 
14 65 
14 67 
14 69 
14 72 
14 73 
14 76 
14 78 
14 79 
14 81 
14 84 
14 85 
14 88 
14 90 
14 91 
14 94 
14 96 
14 98 
14 100 
14 101 
14 103 
14 105 
14 107 
14 110 
14 111 
14 114 
14 115 
14 117 
14 120 
14 122 
14 124 
14 126 
14 127 
15 16 
15 66 
15 67 
15 70 
15 71 
15 74 
15 76 
15 78 
15 80 
15 82 
15 83 
15 85 
15 87 
15 90 
15 91 
15 94 
15 95 
15 98 
15 99 
15 101 
15 104 
15 106 
15 108 
15 110 
15 111 
15 113 
15 115 
15 117 
15 120 
15 121 
15 124 
15 125 
15 127 
16 65 
16 68 
16 69 
16 72 
16 73 
16 75 
16 77 
16 79 
16 81 
16 84 
16 86 
16 88 
16 89 
16 92 
16 93 
16 96 
16 97 
16 100 
16 102 
16 103 
16 105 
16 107 
16 109 
16 112 
16 114 
16 116 
16 118 
16 119 
16 122 
16 123 
16 126 
16 128 
17 18 
17 66 
17 67 
17 69 
17 72 
17 73 
17 76 
17 77 
17 80 
17 81 
17 83 
17 85 
17 88 
17 89 
17 92 
17 93 
17 96 
17 98 
17 99 
17 101 
17 104 
17 106 
17 107 
17 110 
17 111 
17 113 
17 116 
17 118 
17 120 
17 122 
17 123 
17 125 
17 128 
18 65 
18 68 
18 70 
18 71 
18 74 
18 75 
18 78 
18 79 
18 82 
18 84 
18 86 
18 87 
18 90 
18 91 
18 94 
18 95 
18 97 
18 100 
18 102 
18 103 
18 105 
18 108 
18 109 
18 112 
18 114 
18 115 
18 117 
18 119 
18 121 
18 124 
18 126 
18 127 
19 20 
19 66 
19 68 
19 69 
19 72 
19 74 
19 76 
19 78 
19 80 
19 82 
19 84 
19 85 
19 88 
19 90 
19 92 
19 93 
19 96 
19 97 
19 99 
19 102 
19 104 
19 105 
19 108 
19 110 
19 112 
19 114 
19 115 
19 118 
19 120 
19 121 
19 124 
19 126 
19 128 
20 65 
20 67 
20 70 
20 71 
20 73 
20 75 
20 77 
20 79 
20 81 
20 83 
20 86 
20 87 
20 89 
20 91 
20 94 
20 95 
20 98 
20 100 
20 101 
20 103 
20 106 
20 107 
20 109 
20 111 
20 113 
20 116 
20 117 
20 119 
20 122 
20 123 
20 125 
20 127 
21 22 
21 65 
21 68 
21 70 
21 71 
21 73 
21 76 
21 78 
21 79 
21 81 
21 83 
21 85 
21 88 
21 90 
21 92 
21 93 
21 95 
21 97 
21 100 
21 102 
21 103 
21 106 
21 108 
21 110 
21 111 
21 113 
21 115 
21 118 
21 119 
21 122 
21 124 
21 125 
21 128 
22 66 
22 67 
22 69 
22 72 
22 74 
22 75 
22 77 
22 80 
22 82 
22 84 
22 86 
22 87 
22 89 
22 91 
22 94 
22 96 
22 98 
22 99 
22 101 
22 104 
22 105 
22 107 
22 109 
22 112 
22 114 
22 116 
22 117 
22 120 
22 121 
22 123 
22 126 
22 127 
23 24 
23 66 
23 68 
23 70 
23 72 
23 73 
23 75 
23 78 
23 79 
23 82 
23 83 
23 85 
23 87 
23 89 
23 92 
23 93 
23 95 
23 98 
23 99 
23 102 
23 103 
23 105 
23 107 
23 110 
23 112 
23 114 
23 116 
23 117 
23 120 
23 122 
23 124 
23 125 
23 127 
24 65 
24 67 
24 69 
24 71 
24 74 
24 76 
24 77 
24 80 
24 81 
24 84 
24 86 
24 88 
24 90 
24 91 
24 94 
24 96 
24 97 
24 100 
24 101 
24 104 
24 106 
24 108 
24 109 
24 111 
24 113 
24 115 
24 118 
24 119 
24 121 
24 123 
24 126 
24 128 
25 26 
25 65 
25 67 
25 70 
25 72 
25 74 
25 76 
25 78 
25 79 
25 81 
25 84 
25 86 
25 87 
25 89 
25 92 
25 93 
25 96 
25 97 
25 100 
25 102 
25 104 
25 106 
25 107 
25 110 
25 112 
25 113 
25 115 
25 117 
25 120 
25 121 
25 123 
25 125 
25 127 
26 66 
26 68 
26 69 
26 71 
26 73 
26 75 
26 77 
26 80 
26 82 
26 83 
26 85 
26 88 
26 90 
26 91 
26 94 
26 95 
26 98 
26 99 
26 101 
26 103 
26 105 
26 108 
26 109 
26 111 
26 114 
26 116 
26 118 
26 119 
26 122 
26 124 
26 126 
26 128 
27 28 
27 66 
27 67 
27 70 
27 71 
27 74 
27 76 
27 78 
27 80 
27 82 
27 83 
27 86 
27 88 
27 90 
27 92 
27 94 
27 96 
27 98 
27 100 
27 102 
27 103 
27 106 
27 107 
27 110 
27 112 
27 114 
27 116 
27 117 
27 119 
27 122 
27 123 
27 126 
27 128 
28 65 
28 68 
28 69 
28 72 
28 73 
28 75 
28 77 
28 79 
28 81 
28 84 
28 85 
28 87 
28 89 
28 91 
28 93 
28 95 
28 97 
28 99 
28 101 
28 104 
28 105 
28 108 
28 109 
28 111 
28 113 
28 115 
28 118 
28 120 
28 121 
28 124 
28 125 
28 127 
29 30 
29 66 
29 68 
29 69 
29 71 
29 74 
29 75 
29 78 
29 79 
29 81 
29 83 
29 86 
29 87 
29 90 
29 92 
29 93 
29 96 
29 98 
29 100 
29 101 
29 104 
29 105 
29 108 
29 109 
29 111 
29 114 
29 115 
29 117 
29 120 
29 122 
29 123 
29 125 
29 128 
30 65 
30 67 
30 70 
30 72 
30 73 
30 76 
30 77 
30 80 
30 82 
30 84 
30 85 
30 88 
30 89 
30 91 
30 94 
30 95 
30 97 
30 99 
30 102 
30 103 
30 106 
30 107 
30 110 
30 112 
30 113 
30 116 
30 118 
30 119 
30 121 
30 124 
30 126 
30 127 
31 32 
31 65 
31 68 
31 70 
31 71 
31 73 
31 75 
31 77 
31 80 
31 81 
31 83 
31 85 
31 88 
31 90 
31 91 
31 93 
31 96 
31 98 
31 100 
31 102 
31 104 
31 105 
31 108 
31 110 
31 112 
31 113 
31 116 
31 117 
31 120 
31 121 
31 123 
31 126 
31 127 
32 66 
32 67 
32 69 
32 72 
32 74 
32 76 
32 78 
32 79 
32 82 
32 84 
32 86 
32 87 
32 89 
32 92 
32 94 
32 95 
32 97 
32 99 
32 101 
32 103 
32 106 
32 107 
32 109 
32 111 
32 114 
32 115 
32 118 
32 119 
32 122 
32 124 
32 125 
32 128 
33 34 
33 66 
33 68 
33 70 
33 71 
33 74 
33 76 
33 77 
33 79 
33 81 
33 83 
33 86 
33 88 
33 89 
33 92 
33 94 
33 96 
33 98 
33 99 
33 102 
33 103 
33 105 
33 107 
33 109 
33 111 
33 113 
33 115 
33 118 
33 120 
33 121 
33 124 
33 126 
33 127 
34 65 
34 67 
34 69 
34 72 
34 73 
34 75 
34 78 
34 80 
34 82 
34 84 
34 85 
34 87 
34 90 
34 91 
34 93 
34 95 
34 97 
34 100 
34 101 
34 104 
34 106 
34 108 
34 110 
34 112 
34 114 
34 116 
34 117 
34 119 
34 122 
34 123 
34 125 
34 128 
35 36 
35 66 
35 67 
35 70 
35 72 
35 74 
35 75 
35 78 
35 80 
35 81 
35 84 
35 85 
35 87 
35 90 
35 91 
35 93 
35 96 
35 98 
35 100 
35 102 
35 103 
35 105 
35 107 
35 109 
35 111 
35 113 
35 116 
35 118 
35 119 
35 121 
35 124 
35 125 
35 128 
36 65 
36 68 
36 69 
36 71 
36 73 
36 76 
36 77 
36 79 
36 82 
36 83 
36 86 
36 88 
36 89 
36 92 
36 94 
36 95 
36 97 
36 99 
36 101 
36 104 
36 106 
36 108 
36 110 
36 112 
36 114 
36 115 
36 117 
36 120 
36 122 
36 123 
36 126 
36 127 
37 38 
37 66 
37 67 
37 70 
37 72 
37 74 
37 75 
37 77 
37 79 
37 82 
37 83 
37 85 
37 88 
37 90 
37 91 
37 93 
37 95 
37 97 
37 100 
37 102 
37 104 
37 106 
37 107 
37 109 
37 111 
37 114 
37 115 
37 118 
37 120 
37 122 
37 123 
37 126 
37 127 
38 65 
38 68 
38 69 
38 71 
38 73 
38 76 
38 78 
38 80 
38 81 
38 84 
38 86 
38 87 
38 89 
38 92 
38 94 
38 96 
38 98 
38 99 
38 101 
38 103 
38 105 
38 108 
38 110 
38 112 
38 113 
38 116 
38 117 
38 119 
38 121 
38 124 
38 125 
38 128 
39 40 
39 66 
39 68 
39 69 
39 71 
39 74 
39 76 
39 77 
39 80 
39 81 
39 84 
39 85 
39 87 
39 90 
39 92 
39 93 
39 95 
39 97 
39 100 
39 101 
39 103 
39 106 
39 107 
39 109 
39 112 
39 113 
39 116 
39 117 
39 120 
39 122 
39 124 
39 126 
39 127 
40 65 
40 67 
40 70 
40 72 
40 73 
40 75 
40 78 
40 79 
40 82 
40 83 
40 86 
40 88 
40 89 
40 91 
40 94 
40 96 
40 98 
40 99 
40 102 
40 104 
40 105 
40 108 
40 110 
40 111 
40 114 
40 115 
40 118 
40 119 
40 121 
40 123 
40 125 
40 128 
41 42 
41 65 
41 68 
41 70 
41 72 
41 74 
41 75 
41 77 
41 79 
41 81 
41 83 
41 85 
41 87 
41 90 
41 92 
41 94 
41 96 
41 97 
41 99 
41 101 
41 104 
41 106 
41 107 
41 110 
41 111 
41 114 
41 116 
41 117 
41 119 
41 121 
41 124 
41 126 
41 128 
42 66 
42 67 
42 69 
42 71 
42 73 
42 76 
42 78 
42 80 
42 82 
42 84 
42 86 
42 88 
42 89 
42 91 
42 93 
42 95 
42 98 
42 100 
42 102 
42 103 
42 105 
42 108 
42 109 
42 112 
42 113 
42 115 
42 118 
42 120 
42 122 
42 123 
42 125 
42 127 
43 44 
43 65 
43 67 
43 70 
43 71 
43 73 
43 76 
43 78 
43 79 
43 82 
43 83 
43 86 
43 87 
43 90 
43 91 
43 93 
43 96 
43 97 
43 99 
43 101 
43 104 
43 105 
43 107 
43 109 
43 112 
43 113 
43 116 
43 118 
43 120 
43 122 
43 124 
43 126 
43 128 
44 66 
44 68 
44 69 
44 72 
44 74 
44 75 
44 77 
44 80 
44 81 
44 84 
44 85 
44 88 
44 89 
44 92 
44 94 
44 95 
44 98 
44 100 
44 102 
44 103 
44 106 
44 108 
44 110 
44 111 
44 114 
44 115 
44 117 
44 119 
44 121 
44 123 
44 125 
44 127 
45 46 
45 66 
45 68 
45 69 
45 72 
45 73 
45 76 
45 78 
45 79 
45 82 
45 83 
45 85 
45 87 
45 89 
45 91 
45 94 
45 96 
45 97 
45 100 
45 102 
45 103 
45 106 
45 108 
45 109 
45 111 
45 113 
45 116 
45 117 
45 120 
45 121 
45 123 
45 126 
45 128 
46 65 
46 67 
46 70 
46 71 
46 74 
46 75 
46 77 
46 80 
46 81 
46 84 
46 86 
46 88 
46 90 
46 92 
46 93 
46 95 
46 98 
46 99 
46 101 
46 104 
46 105 
46 107 
46 110 
46 112 
46 114 
46 115 
46 118 
46 119 
46 122 
46 124 
46 125 
46 127 
47 48 
47 66 
47 68 
47 69 
47 71 
47 73 
47 76 
47 78 
47 79 
47 81 
47 84 
47 86 
47 87 
47 90 
47 91 
47 93 
47 95 
47 98 
47 99 
47 102 
47 104 
47 106 
47 107 
47 110 
47 111 
47 114 
47 116 
47 118 
47 119 
47 121 
47 123 
47 126 
47 127 
48 65 
48 67 
48 70 
48 72 
48 74 
48 75 
48 77 
48 80 
48 82 
48 83 
48 85 
48 88 
48 89 
48 92 
48 94 
48 96 
48 97 
48 100 
48 101 
48 103 
48 105 
48 108 
48 109 
48 112 
48 113 
48 115 
48 117 
48 120 
48 122 
48 124 
48 125 
48 128 
49 50 
49 65 
49 67 
49 69 
49 72 
49 74 
49 75 
49 78 
49 80 
49 81 
49 83 
49 86 
49 87 
49 90 
49 92 
49 94 
49 95 
49 97 
49 99 
49 102 
49 103 
49 105 
49 108 
49 110 
49 111 
49 113 
49 116 
49 118 
49 120 
49 122 
49 123 
49 126 
49 127 
50 66 
50 68 
50 70 
50 71 
50 73 
50 76 
50 77 
50 79 
50 82 
50 84 
50 85 
50 88 
50 89 
50 91 
50 93 
50 96 
50 98 
50 100 
50 101 
50 104 
50 106 
50 107 
50 109 
50 112 
50 114 
50 115 
50 117 
50 119 
50 121 
50 124 
50 125 
50 128 
51 52 
51 65 
51 67 
51 69 
51 71 
51 73 
51 75 
51 78 
51 80 
51 81 
51 83 
51 85 
51 87 
51 89 
51 92 
51 94 
51 95 
51 98 
51 100 
51 102 
51 104 
51 106 
51 107 
51 109 
51 112 
51 114 
51 115 
51 118 
51 120 
51 121 
51 124 
51 126 
51 128 
52 66 
52 68 
52 70 
52 72 
52 74 
52 76 
52 77 
52 79 
52 82 
52 84 
52 86 
52 88 
52 90 
52 91 
52 93 
52 96 
52 97 
52 99 
52 101 
52 103 
52 105 
52 108 
52 110 
52 111 
52 113 
52 116 
52 117 
52 119 
52 122 
52 123 
52 125 
52 127 
53 54 
53 66 
53 67 
53 70 
53 71 
53 73 
53 75 
53 78 
53 79 
53 81 
53 84 
53 85 
53 88 
53 90 
53 92 
53 94 
53 96 
53 97 
53 99 
53 101 
53 103 
53 106 
53 108 
53 109 
53 112 
53 114 
53 116 
53 118 
53 120 
53 121 
53 123 
53 125 
53 127 
54 65 
54 68 
54 69 
54 72 
54 74 
54 76 
54 77 
54 80 
54 82 
54 83 
54 86 
54 87 
54 89 
54 91 
54 93 
54 95 
54 98 
54 100 
54 102 
54 104 
54 105 
54 107 
54 110 
54 111 
54 113 
54 115 
54 117 
54 119 
54 122 
54 124 
54 126 
54 128 
55 56 
55 65 
55 68 
55 69 
55 72 
55 74 
55 76 
55 78 
55 79 
55 82 
55 83 
55 85 
55 88 
55 90 
55 92 
55 94 
55 95 
55 98 
55 100 
55 101 
55 104 
55 105 
55 107 
55 109 
55 112 
55 113 
55 116 
55 118 
55 119 
55 121 
55 123 
55 125 
55 127 
56 66 
56 67 
56 70 
56 71 
56 73 
56 75 
56 77 
56 80 
56 81 
56 84 
56 86 
56 87 
56 89 
56 91 
56 93 
56 96 
56 97 
56 99 
56 102 
56 103 
56 106 
56 108 
56 110 
56 111 
56 114 
56 115 
56 117 
56 120 
56 122 
56 124 
56 126 
56 128 
57 58 
57 65 
57 68 
57 70 
57 71 
57 74 
57 76 
57 78 
57 80 
57 81 
57 84 
57 85 
57 88 
57 89 
57 91 
57 94 
57 95 
57 97 
57 99 
57 102 
57 104 
57 105 
57 107 
57 109 
57 111 
57 114 
57 116 
57 117 
57 120 
57 122 
57 123 
57 125 
57 128 
58 66 
58 67 
58 69 
58 72 
58 73 
58 75 
58 77 
58 79 
58 82 
58 83 
58 86 
58 87 
58 90 
58 92 
58 93 
58 96 
58 98 
58 100 
58 101 
58 103 
58 106 
58 108 
58 110 
58 112 
58 113 
58 115 
58 118 
58 119 
58 121 
58 124 
58 126 
58 127 
59 60 
59 66 
59 68 
59 70 
59 72 
59 73 
59 76 
59 77 
59 80 
59 81 
59 83 
59 86 
59 87 
59 90 
59 91 
59 94 
59 95 
59 97 
59 100 
59 101 
59 103 
59 105 
59 107 
59 110 
59 112 
59 114 
59 115 
59 118 
59 120 
59 121 
59 123 
59 125 
59 128 
60 65 
60 67 
60 69 
60 71 
60 74 
60 75 
60 78 
60 79 
60 82 
60 84 
60 85 
60 88 
60 89 
60 92 
60 93 
60 96 
60 98 
60 99 
60 102 
60 104 
60 106 
60 108 
60 109 
60 111 
60 113 
60 116 
60 117 
60 119 
60 122 
60 124 
60 126 
60 127 
61 62 
61 65 
61 68 
61 70 
61 72 
61 73 
61 75 
61 78 
61 80 
61 82 
61 84 
61 86 
61 88 
61 90 
61 92 
61 93 
61 95 
61 98 
61 99 
61 101 
61 103 
61 106 
61 107 
61 109 
61 111 
61 113 
61 115 
61 117 
61 120 
61 121 
61 123 
61 126 
61 128 
62 66 
62 67 
62 69 
62 71 
62 74 
62 76 
62 77 
62 79 
62 81 
62 83 
62 85 
62 87 
62 89 
62 91 
62 94 
62 96 
62 97 
62 100 
62 102 
62 104 
62 105 
62 108 
62 110 
62 112 
62 114 
62 116 
62 118 
62 119 
62 122 
62 124 
62 125 
62 127 
63 64 
63 66 
63 67 
63 69 
63 71 
63 73 
63 75 
63 77 
63 79 
63 82 
63 84 
63 86 
63 88 
63 90 
63 92 
63 94 
63 95 
63 97 
63 100 
63 102 
63 104 
63 105 
63 107 
63 110 
63 111 
63 113 
63 116 
63 117 
63 120 
63 121 
63 124 
63 125 
63 128 
64 65 
64 68 
64 70 
64 72 
64 74 
64 76 
64 78 
64 80 
64 81 
64 83 
64 85 
64 87 
64 89 
64 91 
64 93 
64 96 
64 98 
64 99 
64 101 
64 103 
64 106 
64 108 
64 109 
64 112 
64 114 
64 115 
64 118 
64 119 
64 122 
64 123 
64 126 
64 127 
65 66 
67 68 
69 70 
71 72 
73 74 
75 76 
77 78 
79 80 
81 82 
83 84 
85 86 
87 88 
89 90 
91 92 
93 94 
95 96 
97 98 
99 100 
101 102 
103 104 
105 106 
107 108 
109 110 
111 112 
113 114 
115 116 
117 118 
119 120 
121 122 
123 124 
125 126 
127 128 
